NAME          
ROWS
 N  OBJ
 L  c1
 L  c2
 L  c3
 L  c4
 L  c5
COLUMNS
    MARKER    'MARKER'                 'INTORG'
    x[1]      c1        160
    x[1]      c2        935
    x[1]      c3        988
    x[1]      c4        454
    x[1]      c5        204
    x[1]      OBJ       -375
    x[2]      c1        271
    x[2]      c2        869
    x[2]      c3        542
    x[2]      c4        241
    x[2]      c5        982
    x[2]      OBJ       -771
    x[3]      c1        309
    x[3]      c2        277
    x[3]      c3        873
    x[3]      c4        452
    x[3]      c5        339
    x[3]      OBJ       -899
    x[4]      c1        668
    x[4]      c2        340
    x[4]      c3        3
    x[4]      c4        716
    x[4]      c5        449
    x[4]      OBJ       -414
    x[5]      c1        841
    x[5]      c2        688
    x[5]      c3        873
    x[5]      c4        810
    x[5]      c5        592
    x[5]      OBJ       -33
    x[6]      c1        708
    x[6]      c2        814
    x[6]      c3        132
    x[6]      c4        904
    x[6]      c5        952
    x[6]      OBJ       -621
    x[7]      c1        630
    x[7]      c2        612
    x[7]      c3        528
    x[7]      c4        530
    x[7]      c5        731
    x[7]      OBJ       -808
    x[8]      c1        580
    x[8]      c2        904
    x[8]      c3        678
    x[8]      c4        955
    x[8]      c5        88
    x[8]      OBJ       -667
    x[9]      c1        516
    x[9]      c2        815
    x[9]      c3        977
    x[9]      c4        793
    x[9]      c5        139
    x[9]      OBJ       -316
    x[10]     c1        903
    x[10]     c2        562
    x[10]     c3        239
    x[10]     c4        149
    x[10]     c5        410
    x[10]     OBJ       -462
    x[11]     c1        139
    x[11]     c2        866
    x[11]     c3        141
    x[11]     c4        584
    x[11]     c5        832
    x[11]     OBJ       -379
    x[12]     c1        84
    x[12]     c2        870
    x[12]     c3        791
    x[12]     c4        139
    x[12]     c5        675
    x[12]     OBJ       -372
    x[13]     c1        181
    x[13]     c2        650
    x[13]     c3        315
    x[13]     c4        21
    x[13]     c5        918
    x[13]     OBJ       -803
    x[14]     c1        236
    x[14]     c2        27
    x[14]     c3        855
    x[14]     c4        922
    x[14]     c5        223
    x[14]     OBJ       -997
    x[15]     c1        27
    x[15]     c2        233
    x[15]     c3        116
    x[15]     c4        69
    x[15]     c5        336
    x[15]     OBJ       -301
    x[16]     c1        233
    x[16]     c2        936
    x[16]     c3        272
    x[16]     c4        497
    x[16]     c5        100
    x[16]     OBJ       -600
    x[17]     c1        378
    x[17]     c2        105
    x[17]     c3        519
    x[17]     c4        678
    x[17]     c5        141
    x[17]     OBJ       -548
    x[18]     c1        73
    x[18]     c2        42
    x[18]     c3        473
    x[18]     c4        516
    x[18]     c5        38
    x[18]     OBJ       -488
    x[19]     c1        40
    x[19]     c2        917
    x[19]     c3        667
    x[19]     c4        306
    x[19]     c5        551
    x[19]     OBJ       -782
    x[20]     c1        581
    x[20]     c2        328
    x[20]     c3        473
    x[20]     c4        417
    x[20]     c5        859
    x[20]     OBJ       -24
RHS
    rhs       c1        3779
    rhs       c2        5895
    rhs       c3        5228
    rhs       c4        5076
    rhs       c5        4780
RANGES
BOUNDS
 BV bounds    x[1]
 BV bounds    x[2]
 BV bounds    x[3]
 BV bounds    x[4]
 BV bounds    x[5]
 BV bounds    x[6]
 BV bounds    x[7]
 BV bounds    x[8]
 BV bounds    x[9]
 BV bounds    x[10]
 BV bounds    x[11]
 BV bounds    x[12]
 BV bounds    x[13]
 BV bounds    x[14]
 BV bounds    x[15]
 BV bounds    x[16]
 BV bounds    x[17]
 BV bounds    x[18]
 BV bounds    x[19]
 BV bounds    x[20]
ENDATA
